p cnf 232 142
33 0
34 -162 0
-34 162 0
35 -163 0
-35 163 0
36 -164 0
-36 164 0
37 -165 0
-37 165 0
38 -166 0
-38 166 0
39 -167 0
-39 167 0
40 -168 0
-40 168 0
41 -169 0
-41 169 0
42 -170 0
-42 170 0
43 -171 0
-43 171 0
44 -172 0
-44 172 0
45 -173 0
-45 173 0
46 -174 0
-46 174 0
47 -175 0
-47 175 0
48 -176 0
-48 176 0
49 -177 0
-49 177 0
50 -178 0
-50 178 0
51 -179 0
-51 179 0
52 -180 0
-52 180 0
53 -181 0
-53 181 0
54 -182 0
-54 182 0
55 -183 0
-55 183 0
56 -184 0
-56 184 0
57 -185 0
-57 185 0
58 -186 0
-58 186 0
59 -187 0
-59 187 0
60 -188 0
-60 188 0
61 -189 0
-61 189 0
62 -190 0
-62 190 0
63 -191 0
-63 191 0
64 -192 0
-64 192 0
65 -193 0
-65 193 0
66 -194 0
-66 194 0
67 -195 0
-67 195 0
68 -196 0
-68 196 0
69 -197 0
-69 197 0
70 -198 0
-70 198 0
71 -199 0
-71 199 0
72 -200 0
-72 200 0
73 -201 0
-73 201 0
74 -202 0
-74 202 0
75 -203 0
-75 203 0
76 -204 0
-76 204 0
77 -205 0
-77 205 0
78 -206 0
-78 206 0
79 -207 0
-79 207 0
80 -208 0
-80 208 0
81 -209 0
-81 209 0
82 -210 0
-82 210 0
83 -211 0
-83 211 0
84 -212 0
-84 212 0
85 -213 0
-85 213 0
86 -214 0
-86 214 0
87 -215 0
-87 215 0
88 -216 0
-88 216 0
89 -217 0
-89 217 0
90 -218 0
-90 218 0
91 -219 0
-91 219 0
92 -220 0
-92 220 0
93 -221 0
-93 221 0
94 -222 0
-94 222 0
95 -223 0
-95 223 0
96 -224 0
-96 224 0
97 -225 0
-97 225 0
-226 -228 -230 0
226 228 -230 0
-226 228 230 0
226 -228 230 0
-227 -229 -231 0
227 229 -231 0
-227 229 231 0
227 -229 231 0
-230 -232 0
-231 -232 0
230 231 232 0
-33 232 0
33 -232 0
c __CPROVER_malloc_is_new_array#1 FALSE
c symex::io::0 162 163 164 165 166 167 168 169 170 171 172 173 174 175 176 177 178 179 180 181 182 183 184 185 186 187 188 189 190 191 192 193
c table_lookup::1::__return_value!0@1#2 1 2 3 4 5 6 7 8 9 10 11 12 13 14 15 16 17 18 19 20 21 22 23 24 25 26 27 28 29 30 31 32
c _start::I!0#1 66 67 68 69 70 71 72 73 74 75 76 77 78 79 80 81 82 83 84 85 86 87 88 89 90 91 92 93 94 95 96 97
c table_lookup::table!0@1#1 34 35 36 37 38 39 40 41 42 43 44 45 46 47 48 49 50 51 52 53 54 55 56 57 58 59 60 61 62 63 64 65
c table_lookup::I!0@1#1 66 67 68 69 70 71 72 73 74 75 76 77 78 79 80 81 82 83 84 85 86 87 88 89 90 91 92 93 94 95 96 97
c __CPROVER_malloc_object#1 FALSE FALSE FALSE FALSE FALSE FALSE FALSE FALSE FALSE FALSE FALSE FALSE FALSE FALSE FALSE FALSE FALSE FALSE FALSE FALSE FALSE FALSE FALSE FALSE FALSE FALSE FALSE FALSE FALSE FALSE FALSE FALSE
c symex::io::1 194 195 196 197 198 199 200 201 202 203 204 205 206 207 208 209 210 211 212 213 214 215 216 217 218 219 220 221 222 223 224 225
c _start::table!0#1 34 35 36 37 38 39 40 41 42 43 44 45 46 47 48 49 50 51 52 53 54 55 56 57 58 59 60 61 62 63 64 65
c __CPROVER_deallocated#1 FALSE FALSE FALSE FALSE FALSE FALSE FALSE FALSE FALSE FALSE FALSE FALSE FALSE FALSE FALSE FALSE FALSE FALSE FALSE FALSE FALSE FALSE FALSE FALSE FALSE FALSE FALSE FALSE FALSE FALSE FALSE FALSE
c table_lookup::1::__return_value!0@1#1 98 99 100 101 102 103 104 105 106 107 108 109 110 111 112 113 114 115 116 117 118 119 120 121 122 123 124 125 126 127 128 129
c __CPROVER_malloc_size#1 FALSE FALSE FALSE FALSE FALSE FALSE FALSE FALSE FALSE FALSE FALSE FALSE FALSE FALSE FALSE FALSE FALSE FALSE FALSE FALSE FALSE FALSE FALSE FALSE FALSE FALSE FALSE FALSE FALSE FALSE FALSE FALSE
c __CPROVER_dead_object#1 FALSE FALSE FALSE FALSE FALSE FALSE FALSE FALSE FALSE FALSE FALSE FALSE FALSE FALSE FALSE FALSE FALSE FALSE FALSE FALSE FALSE FALSE FALSE FALSE FALSE FALSE FALSE FALSE FALSE FALSE FALSE FALSE
c table_lookup::1::V!0@1#1 130 131 132 133 134 135 136 137 138 139 140 141 142 143 144 145 146 147 148 149 150 151 152 153 154 155 156 157 158 159 160 161
c __CPROVER_memory_leak#1 FALSE FALSE FALSE FALSE FALSE FALSE FALSE FALSE FALSE FALSE FALSE FALSE FALSE FALSE FALSE FALSE FALSE FALSE FALSE FALSE FALSE FALSE FALSE FALSE FALSE FALSE FALSE FALSE FALSE FALSE FALSE FALSE
c _start::table$object#0 1 2 3 4 5 6 7 8 9 10 11 12 13 14 15 16 17 18 19 20 21 22 23 24 25 26 27 28 29 30 31 32
c __CPROVER_next_thread_id#1 FALSE FALSE FALSE FALSE FALSE FALSE FALSE FALSE FALSE FALSE FALSE FALSE FALSE FALSE FALSE FALSE FALSE FALSE FALSE FALSE FALSE FALSE FALSE FALSE FALSE FALSE FALSE FALSE FALSE FALSE FALSE FALSE
c table_lookup::1::V!0@1#2 1 2 3 4 5 6 7 8 9 10 11 12 13 14 15 16 17 18 19 20 21 22 23 24 25 26 27 28 29 30 31 32
c __CPROVER_pipe_count#1 FALSE FALSE FALSE FALSE FALSE FALSE FALSE FALSE FALSE FALSE FALSE FALSE FALSE FALSE FALSE FALSE FALSE FALSE FALSE FALSE FALSE FALSE FALSE FALSE FALSE FALSE FALSE FALSE FALSE FALSE FALSE FALSE
c __CPROVER_rounding_mode!0#1 FALSE FALSE FALSE FALSE FALSE FALSE FALSE FALSE FALSE FALSE FALSE FALSE FALSE FALSE FALSE FALSE FALSE FALSE FALSE FALSE FALSE FALSE FALSE FALSE FALSE FALSE FALSE FALSE FALSE FALSE FALSE FALSE
c __CPROVER_thread_id!0#1 FALSE FALSE FALSE FALSE FALSE FALSE FALSE FALSE FALSE FALSE FALSE FALSE FALSE FALSE FALSE FALSE FALSE FALSE FALSE FALSE FALSE FALSE FALSE FALSE FALSE FALSE FALSE FALSE FALSE FALSE FALSE FALSE
c ind 1 2 3 4 5 6 7 8 9 10 0
c ind 11 12 13 14 15 16 17 18 19 20 0
c ind 21 22 23 24 25 26 27 28 29 30 0
c ind 31 32 0
cr 1 2 3 4 5 6 7 8 9 10 11 12 13 14 15 16 17 18 19 20 21 22 23 24 25 26 27 28 29 30 31 32
